1-22-61-21-69-36-71-60-70-20-37-15-57-27-45-30-2-1
1-33-51-17-40-12-31-55-25-50-18-24-49-1
1-62-28-74-48-47-5-29-68-6-63-23-56-41-64-42-43-1
1-76-26-7-35-53-11-66-65-38-10-58-72-39-9-32-44-3-16-1
1-73-4-52-13-54-59-14-19-8-46-34-67-75-1